lattice_vector  37.6824569702  0.0000000003  0.0000000003
lattice_vector   0.0034118248 37.6799545288  0.0000000003
lattice_vector   0.0892501697 -0.0448053665 35.9155235291
atom_frac  0.173745006  0.000032160  0.254629493 C  
atom_frac  0.173745006  0.000032160  0.754629493 C  
atom_frac  0.173745006  0.500032187  0.254629493 C  
atom_frac  0.173745006  0.500032187  0.754629493 C  
atom_frac  0.673745036  0.000032160  0.254629493 C  
atom_frac  0.673745036  0.000032160  0.754629493 C  
atom_frac  0.673745036  0.500032187  0.254629493 C  
atom_frac  0.673745036  0.500032187  0.754629493 C  
atom_frac  0.326102018  0.000040285  0.254526258 C  
atom_frac  0.326102018  0.000040285  0.754526258 C  
atom_frac  0.326102018  0.500040293  0.254526258 C  
atom_frac  0.326102018  0.500040293  0.754526258 C  
atom_frac  0.826102018  0.000040285  0.254526258 C  
atom_frac  0.826102018  0.000040285  0.754526258 C  
atom_frac  0.826102018  0.500040293  0.254526258 C  
atom_frac  0.826102018  0.500040293  0.754526258 C  
atom_frac  0.499921292  0.326212108  0.254614592 C  
atom_frac  0.499921292  0.326212108  0.754614592 C  
atom_frac  0.499921292  0.826212108  0.254614592 C  
atom_frac  0.499921292  0.826212108  0.754614592 C  
atom_frac  0.999921262  0.326212108  0.254614592 C  
atom_frac  0.999921262  0.326212108  0.754614592 C  
atom_frac  0.999921262  0.826212108  0.254614592 C  
atom_frac  0.999921262  0.826212108  0.754614592 C  
atom_frac  0.499906987  0.173847422  0.254557192 C  
atom_frac  0.499906987  0.173847422  0.754557192 C  
atom_frac  0.499906987  0.673847437  0.254557192 C  
atom_frac  0.499906987  0.673847437  0.754557192 C  
atom_frac  0.999907017  0.173847422  0.254557192 C  
atom_frac  0.999907017  0.173847422  0.754557192 C  
atom_frac  0.999907017  0.673847437  0.254557192 C  
atom_frac  0.999907017  0.673847437  0.754557192 C  
atom_frac  0.250009120  0.423805773  0.495512009 C  
atom_frac  0.250009120  0.423805773  0.995512009 C  
atom_frac  0.250009120  0.923805773  0.495512009 C  
atom_frac  0.250009120  0.923805773  0.995512009 C  
atom_frac  0.750009120  0.423805773  0.495512009 C  
atom_frac  0.750009120  0.423805773  0.995512009 C  
atom_frac  0.750009120  0.923805773  0.495512009 C  
atom_frac  0.750009120  0.923805773  0.995512009 C  
atom_frac  0.250014335  0.076170437  0.495546758 C  
atom_frac  0.250014335  0.076170437  0.995546758 C  
atom_frac  0.250014335  0.576170444  0.495546758 C  
atom_frac  0.250014335  0.576170444  0.995546758 C  
atom_frac  0.750014365  0.076170437  0.495546758 C  
atom_frac  0.750014365  0.076170437  0.995546758 C  
atom_frac  0.750014365  0.576170444  0.495546758 C  
atom_frac  0.750014365  0.576170444  0.995546758 C  
atom_frac  0.076185882  0.249987885  0.495485276 C  
atom_frac  0.076185882  0.249987885  0.995485306 C  
atom_frac  0.076185882  0.749987900  0.495485276 C  
atom_frac  0.076185882  0.749987900  0.995485306 C  
atom_frac  0.576185882  0.249987885  0.495485276 C  
atom_frac  0.576185882  0.249987885  0.995485306 C  
atom_frac  0.576185882  0.749987900  0.495485276 C  
atom_frac  0.576185882  0.749987900  0.995485306 C  
atom_frac  0.423829168  0.249985203  0.495571047 C  
atom_frac  0.423829168  0.249985203  0.995571017 C  
atom_frac  0.423829168  0.749985218  0.495571047 C  
atom_frac  0.423829168  0.749985218  0.995571017 C  
atom_frac  0.923829138  0.249985203  0.495571047 C  
atom_frac  0.923829138  0.249985203  0.995571017 C  
atom_frac  0.923829138  0.749985218  0.495571047 C  
atom_frac  0.923829138  0.749985218  0.995571017 C  
atom_frac  0.463257372  0.249984935  0.495064795 C  
atom_frac  0.463257372  0.249984935  0.995064795 C  
atom_frac  0.463257372  0.749984920  0.495064795 C  
atom_frac  0.463257372  0.749984920  0.995064795 C  
atom_frac  0.963257372  0.249984935  0.495064795 C  
atom_frac  0.963257372  0.249984935  0.995064795 C  
atom_frac  0.963257372  0.749984920  0.495064795 C  
atom_frac  0.963257372  0.749984920  0.995064795 C  
atom_frac  0.036760505  0.249985501  0.495022595 C  
atom_frac  0.036760505  0.249985501  0.995022595 C  
atom_frac  0.036760505  0.749985516  0.495022595 C  
atom_frac  0.036760505  0.749985516  0.995022595 C  
atom_frac  0.536760509  0.249985501  0.495022595 C  
atom_frac  0.536760509  0.249985501  0.995022595 C  
atom_frac  0.536760509  0.749985516  0.495022595 C  
atom_frac  0.536760509  0.749985516  0.995022595 C  
atom_frac  0.250015050  0.036740806  0.495055646 C  
atom_frac  0.250015050  0.036740806  0.995055616 C  
atom_frac  0.250015050  0.536740780  0.495055646 C  
atom_frac  0.250015050  0.536740780  0.995055616 C  
atom_frac  0.750015020  0.036740806  0.495055646 C  
atom_frac  0.750015020  0.036740806  0.995055616 C  
atom_frac  0.750015020  0.536740780  0.495055646 C  
atom_frac  0.750015020  0.536740780  0.995055616 C  
atom_frac  0.250013888  0.463233858  0.495037138 C  
atom_frac  0.250013888  0.463233858  0.995037138 C  
atom_frac  0.250013888  0.963233888  0.495037138 C  
atom_frac  0.250013888  0.963233888  0.995037138 C  
atom_frac  0.750013888  0.463233858  0.495037138 C  
atom_frac  0.750013888  0.463233858  0.995037138 C  
atom_frac  0.750013888  0.963233888  0.495037138 C  
atom_frac  0.750013888  0.963233888  0.995037138 C  
atom_frac  0.499905616  0.213276923  0.255073428 C  
atom_frac  0.499905616  0.213276923  0.755073428 C  
atom_frac  0.499905616  0.713276923  0.255073428 C  
atom_frac  0.499905616  0.713276923  0.755073428 C  
atom_frac  0.999905586  0.213276923  0.255073428 C  
atom_frac  0.999905586  0.213276923  0.755073428 C  
atom_frac  0.999905586  0.713276923  0.255073428 C  
atom_frac  0.999905586  0.713276923  0.755073428 C  
atom_frac  0.499916673  0.286783993  0.255102426 C  
atom_frac  0.499916673  0.286783993  0.755102456 C  
atom_frac  0.499916673  0.786783993  0.255102426 C  
atom_frac  0.499916673  0.786783993  0.755102456 C  
atom_frac  0.999916673  0.286783993  0.255102426 C  
atom_frac  0.999916673  0.286783993  0.755102456 C  
atom_frac  0.999916673  0.786783993  0.255102426 C  
atom_frac  0.999916673  0.786783993  0.755102456 C  
atom_frac  0.286673725  0.000042525  0.255051494 C  
atom_frac  0.286673725  0.000042525  0.755051494 C  
atom_frac  0.286673725  0.500042498  0.255051494 C  
atom_frac  0.286673725  0.500042498  0.755051494 C  
atom_frac  0.786673725  0.000042525  0.255051494 C  
atom_frac  0.786673725  0.000042525  0.755051494 C  
atom_frac  0.786673725  0.500042498  0.255051494 C  
atom_frac  0.786673725  0.500042498  0.755051494 C  
atom_frac  0.213170290  0.000034620  0.255101800 C  
atom_frac  0.213170290  0.000034620  0.755101800 C  
atom_frac  0.213170290  0.500034630  0.255101800 C  
atom_frac  0.213170290  0.500034630  0.755101800 C  
atom_frac  0.713170290  0.000034620  0.255101800 C  
atom_frac  0.713170290  0.000034620  0.755101800 C  
atom_frac  0.713170290  0.500034630  0.255101800 C  
atom_frac  0.713170290  0.500034630  0.755101800 C  
atom_frac  0.481682092  0.281985372  0.494907618 C  
atom_frac  0.481682092  0.281985372  0.994907618 C  
atom_frac  0.481682092  0.781985402  0.494907618 C  
atom_frac  0.481682092  0.781985402  0.994907618 C  
atom_frac  0.981682122  0.281985372  0.494907618 C  
atom_frac  0.981682122  0.281985372  0.994907618 C  
atom_frac  0.981682122  0.781985402  0.494907618 C  
atom_frac  0.981682122  0.781985402  0.994907618 C  
atom_frac  0.018336445  0.217984453  0.495025784 C  
atom_frac  0.018336445  0.217984453  0.995025814 C  
atom_frac  0.018336445  0.717984438  0.495025784 C  
atom_frac  0.018336445  0.717984438  0.995025814 C  
atom_frac  0.518336415  0.217984453  0.495025784 C  
atom_frac  0.518336415  0.217984453  0.995025814 C  
atom_frac  0.518336415  0.717984438  0.495025784 C  
atom_frac  0.518336415  0.717984438  0.995025814 C  
atom_frac  0.282013267  0.018308669  0.495126337 C  
atom_frac  0.282013267  0.018308669  0.995126367 C  
atom_frac  0.282013267  0.518308699  0.495126337 C  
atom_frac  0.282013267  0.518308699  0.995126367 C  
atom_frac  0.782013297  0.018308669  0.495126337 C  
atom_frac  0.782013297  0.018308669  0.995126367 C  
atom_frac  0.782013297  0.518308699  0.495126337 C  
atom_frac  0.782013297  0.518308699  0.995126367 C  
atom_frac  0.218016639  0.481665730  0.494813740 C  
atom_frac  0.218016639  0.481665730  0.994813740 C  
atom_frac  0.218016639  0.981665730  0.494813740 C  
atom_frac  0.218016639  0.981665730  0.994813740 C  
atom_frac  0.718016624  0.481665730  0.494813740 C  
atom_frac  0.718016624  0.481665730  0.994813740 C  
atom_frac  0.718016624  0.981665730  0.494813740 C  
atom_frac  0.718016624  0.981665730  0.994813740 C  
atom_frac  0.282012850  0.481658518  0.495116353 C  
atom_frac  0.282012850  0.481658518  0.995116353 C  
atom_frac  0.282012850  0.981658518  0.495116353 C  
atom_frac  0.282012850  0.981658518  0.995116353 C  
atom_frac  0.782012820  0.481658518  0.495116353 C  
atom_frac  0.782012820  0.481658518  0.995116353 C  
atom_frac  0.782012820  0.981658518  0.495116353 C  
atom_frac  0.782012820  0.981658518  0.995116353 C  
atom_frac  0.218017146  0.018315975  0.494822145 C  
atom_frac  0.218017146  0.018315975  0.994822145 C  
atom_frac  0.218017146  0.518315971  0.494822145 C  
atom_frac  0.218017146  0.518315971  0.994822145 C  
atom_frac  0.718017161  0.018315975  0.494822145 C  
atom_frac  0.718017161  0.018315975  0.994822145 C  
atom_frac  0.718017161  0.518315971  0.494822145 C  
atom_frac  0.718017161  0.518315971  0.994822145 C  
atom_frac  0.481688559  0.217984319  0.495047122 C  
atom_frac  0.481688559  0.217984319  0.995047092 C  
atom_frac  0.481688559  0.717984319  0.495047122 C  
atom_frac  0.481688559  0.717984319  0.995047092 C  
atom_frac  0.981688559  0.217984319  0.495047122 C  
atom_frac  0.981688559  0.217984319  0.995047092 C  
atom_frac  0.981688559  0.717984319  0.495047122 C  
atom_frac  0.981688559  0.717984319  0.995047092 C  
atom_frac  0.018330045  0.281985670  0.494887710 C  
atom_frac  0.018330045  0.281985670  0.994887710 C  
atom_frac  0.018330045  0.781985700  0.494887710 C  
atom_frac  0.018330045  0.781985700  0.994887710 C  
atom_frac  0.518330038  0.281985670  0.494887710 C  
atom_frac  0.518330038  0.281985670  0.994887710 C  
atom_frac  0.518330038  0.781985700  0.494887710 C  
atom_frac  0.518330038  0.781985700  0.994887710 C  
atom_frac  0.268240333  0.032041401  0.255061150 C  
atom_frac  0.268240333  0.032041401  0.755061150 C  
atom_frac  0.268240333  0.532041371  0.255061150 C  
atom_frac  0.268240333  0.532041371  0.755061150 C  
atom_frac  0.768240333  0.032041401  0.255061150 C  
atom_frac  0.768240333  0.032041401  0.755061150 C  
atom_frac  0.768240333  0.532041371  0.255061150 C  
atom_frac  0.768240333  0.532041371  0.755061150 C  
atom_frac  0.231603101  0.468036294  0.255254805 C  
atom_frac  0.231603101  0.468036294  0.755254805 C  
atom_frac  0.231603101  0.968036294  0.255254805 C  
atom_frac  0.231603101  0.968036294  0.755254805 C  
atom_frac  0.731603086  0.468036294  0.255254805 C  
atom_frac  0.731603086  0.468036294  0.755254805 C  
atom_frac  0.731603086  0.968036294  0.255254805 C  
atom_frac  0.731603086  0.968036294  0.755254805 C  
atom_frac  0.467915565  0.268362403  0.255005598 C  
atom_frac  0.467915565  0.268362403  0.755005598 C  
atom_frac  0.467915565  0.768362403  0.255005598 C  
atom_frac  0.467915565  0.768362403  0.755005598 C  
atom_frac  0.967915595  0.268362403  0.255005598 C  
atom_frac  0.967915595  0.268362403  0.755005598 C  
atom_frac  0.967915595  0.768362403  0.255005598 C  
atom_frac  0.967915595  0.768362403  0.755005598 C  
atom_frac  0.031905577  0.231698751  0.255333245 C  
atom_frac  0.031905577  0.231698751  0.755333245 C  
atom_frac  0.031905577  0.731698751  0.255333245 C  
atom_frac  0.031905577  0.731698751  0.755333245 C  
atom_frac  0.531905591  0.231698751  0.255333245 C  
atom_frac  0.531905591  0.231698751  0.755333245 C  
atom_frac  0.531905591  0.731698751  0.255333245 C  
atom_frac  0.531905591  0.731698751  0.755333245 C  
atom_frac  0.467909753  0.231712207  0.254992038 C  
atom_frac  0.467909753  0.231712207  0.754992008 C  
atom_frac  0.467909753  0.731712222  0.254992038 C  
atom_frac  0.467909753  0.731712222  0.754992008 C  
atom_frac  0.967909753  0.231712207  0.254992038 C  
atom_frac  0.967909753  0.231712207  0.754992008 C  
atom_frac  0.967909753  0.731712222  0.254992038 C  
atom_frac  0.967909753  0.731712222  0.754992008 C  
atom_frac  0.031911444  0.268349051  0.255348384 C  
atom_frac  0.031911444  0.268349051  0.755348384 C  
atom_frac  0.031911444  0.768349051  0.255348384 C  
atom_frac  0.031911444  0.768349051  0.755348384 C  
atom_frac  0.531911433  0.268349051  0.255348384 C  
atom_frac  0.531911433  0.268349051  0.755348384 C  
atom_frac  0.531911433  0.768349051  0.255348384 C  
atom_frac  0.531911433  0.768349051  0.755348384 C  
atom_frac  0.268251032  0.468040615  0.255229563 C  
atom_frac  0.268251032  0.468040615  0.755229533 C  
atom_frac  0.268251032  0.968040645  0.255229563 C  
atom_frac  0.268251032  0.968040645  0.755229533 C  
atom_frac  0.768251002  0.468040615  0.255229563 C  
atom_frac  0.768251002  0.468040615  0.755229533 C  
atom_frac  0.768251002  0.968040645  0.255229563 C  
atom_frac  0.768251002  0.968040645  0.755229533 C  
atom_frac  0.231592357  0.032037295  0.255085200 C  
atom_frac  0.231592357  0.032037295  0.755085170 C  
atom_frac  0.231592357  0.532037318  0.255085200 C  
atom_frac  0.231592357  0.532037318  0.755085170 C  
atom_frac  0.731592357  0.032037295  0.255085200 C  
atom_frac  0.731592357  0.032037295  0.755085170 C  
atom_frac  0.731592357  0.532037318  0.255085200 C  
atom_frac  0.731592357  0.532037318  0.755085170 C  
atom_frac  0.112412281  0.112381898  0.158746690 C  
atom_frac  0.112412281  0.112381898  0.658746660 C  
atom_frac  0.112412281  0.612381876  0.158746690 C  
atom_frac  0.112412281  0.612381876  0.658746660 C  
atom_frac  0.612412274  0.112381898  0.158746690 C  
atom_frac  0.612412274  0.112381898  0.658746660 C  
atom_frac  0.612412274  0.612381876  0.158746690 C  
atom_frac  0.612412274  0.612381876  0.658746660 C  
atom_frac  0.386990339  0.387158036  0.340858012 C  
atom_frac  0.386990339  0.387158036  0.840858042 C  
atom_frac  0.386990339  0.887158036  0.340858012 C  
atom_frac  0.386990339  0.887158036  0.840858042 C  
atom_frac  0.886990309  0.387158036  0.340858012 C  
atom_frac  0.886990309  0.387158036  0.840858042 C  
atom_frac  0.886990309  0.887158036  0.340858012 C  
atom_frac  0.886990309  0.887158036  0.840858042 C  
atom_frac  0.112778448  0.112947397  0.340916634 C  
atom_frac  0.112778448  0.112947397  0.840916634 C  
atom_frac  0.112778448  0.612947404  0.340916634 C  
atom_frac  0.112778448  0.612947404  0.840916634 C  
atom_frac  0.612778425  0.112947397  0.340916634 C  
atom_frac  0.612778425  0.112947397  0.840916634 C  
atom_frac  0.612778425  0.612947404  0.340916634 C  
atom_frac  0.612778425  0.612947404  0.840916634 C  
atom_frac  0.387625486  0.387588680  0.158686772 C  
atom_frac  0.387625486  0.387588680  0.658686757 C  
atom_frac  0.387625486  0.887588680  0.158686772 C  
atom_frac  0.387625486  0.887588680  0.658686757 C  
atom_frac  0.887625456  0.387588680  0.158686772 C  
atom_frac  0.887625456  0.387588680  0.658686757 C  
atom_frac  0.887625456  0.887588680  0.158686772 C  
atom_frac  0.887625456  0.887588680  0.658686757 C  
atom_frac  0.112410948  0.387582898  0.158861011 C  
atom_frac  0.112410948  0.387582898  0.658861041 C  
atom_frac  0.112410948  0.887582898  0.158861011 C  
atom_frac  0.112410948  0.887582898  0.658861041 C  
atom_frac  0.612410963  0.387582898  0.158861011 C  
atom_frac  0.612410963  0.387582898  0.658861041 C  
atom_frac  0.612410963  0.887582898  0.158861011 C  
atom_frac  0.612410963  0.887582898  0.658861041 C  
atom_frac  0.387107223  0.112829089  0.340893209 C  
atom_frac  0.387107223  0.112829089  0.840893209 C  
atom_frac  0.387107223  0.612829089  0.340893209 C  
atom_frac  0.387107223  0.612829089  0.840893209 C  
atom_frac  0.887107253  0.112829089  0.340893209 C  
atom_frac  0.887107253  0.112829089  0.840893209 C  
atom_frac  0.887107253  0.612829089  0.340893209 C  
atom_frac  0.887107253  0.612829089  0.840893209 C  
atom_frac  0.112695888  0.387240410  0.341074914 C  
atom_frac  0.112695888  0.387240410  0.841074884 C  
atom_frac  0.112695888  0.887240410  0.341074914 C  
atom_frac  0.112695888  0.887240410  0.841074884 C  
atom_frac  0.612695873  0.387240410  0.341074914 C  
atom_frac  0.612695873  0.387240410  0.841074884 C  
atom_frac  0.612695873  0.887240410  0.341074914 C  
atom_frac  0.612695873  0.887240410  0.841074884 C  
atom_frac  0.387612462  0.112387799  0.158677384 C  
atom_frac  0.387612462  0.112387799  0.658677399 C  
atom_frac  0.387612462  0.612387776  0.158677384 C  
atom_frac  0.387612462  0.612387776  0.658677399 C  
atom_frac  0.887612462  0.112387799  0.158677384 C  
atom_frac  0.887612462  0.112387799  0.658677399 C  
atom_frac  0.887612462  0.612387776  0.158677384 C  
atom_frac  0.887612462  0.612387776  0.658677399 C  
atom_frac  0.137169316  0.362846762  0.409106284 C  
atom_frac  0.137169316  0.362846762  0.909106314 C  
atom_frac  0.137169316  0.862846792  0.409106284 C  
atom_frac  0.137169316  0.862846792  0.909106314 C  
atom_frac  0.637169302  0.362846762  0.409106284 C  
atom_frac  0.637169302  0.362846762  0.909106314 C  
atom_frac  0.637169302  0.862846792  0.409106284 C  
atom_frac  0.637169302  0.862846792  0.909106314 C  
atom_frac  0.362294108  0.137653619  0.091450162 C  
atom_frac  0.362294108  0.137653619  0.591450155 C  
atom_frac  0.362294108  0.637653589  0.091450162 C  
atom_frac  0.362294108  0.637653589  0.591450155 C  
atom_frac  0.862294078  0.137653619  0.091450162 C  
atom_frac  0.862294078  0.137653619  0.591450155 C  
atom_frac  0.862294078  0.637653589  0.091450162 C  
atom_frac  0.862294078  0.637653589  0.591450155 C  
atom_frac  0.137481287  0.362466604  0.091271833 C  
atom_frac  0.137481287  0.362466604  0.591271818 C  
atom_frac  0.137481287  0.862466574  0.091271833 C  
atom_frac  0.137481287  0.862466574  0.591271818 C  
atom_frac  0.637481272  0.362466604  0.091271833 C  
atom_frac  0.637481272  0.362466604  0.591271818 C  
atom_frac  0.637481272  0.862466574  0.091271833 C  
atom_frac  0.637481272  0.862466574  0.591271818 C  
atom_frac  0.362959683  0.137051865  0.409295380 C  
atom_frac  0.362959683  0.137051865  0.909295380 C  
atom_frac  0.362959683  0.637051880  0.409295380 C  
atom_frac  0.362959683  0.637051880  0.909295380 C  
atom_frac  0.862959683  0.137051865  0.409295380 C  
atom_frac  0.862959683  0.137051865  0.909295380 C  
atom_frac  0.862959683  0.637051880  0.409295380 C  
atom_frac  0.862959683  0.637051880  0.909295380 C  
atom_frac  0.137256548  0.137186438  0.409066767 C  
atom_frac  0.137256548  0.137186438  0.909066737 C  
atom_frac  0.137256548  0.637186468  0.409066767 C  
atom_frac  0.137256548  0.637186468  0.909066737 C  
atom_frac  0.637256563  0.137186438  0.409066767 C  
atom_frac  0.637256563  0.137186438  0.909066737 C  
atom_frac  0.637256563  0.637186468  0.409066767 C  
atom_frac  0.637256563  0.637186468  0.909066737 C  
atom_frac  0.362319857  0.362435460  0.091340959 C  
atom_frac  0.362319857  0.362435460  0.591340959 C  
atom_frac  0.362319857  0.862435460  0.091340959 C  
atom_frac  0.362319857  0.862435460  0.591340959 C  
atom_frac  0.862319887  0.362435460  0.091340959 C  
atom_frac  0.862319887  0.362435460  0.591340959 C  
atom_frac  0.862319887  0.862435460  0.091340959 C  
atom_frac  0.862319887  0.862435460  0.591340959 C  
atom_frac  0.137507021  0.137616128  0.091281682 C  
atom_frac  0.137507021  0.137616128  0.591281712 C  
atom_frac  0.137507021  0.637616098  0.091281682 C  
atom_frac  0.137507021  0.637616098  0.591281712 C  
atom_frac  0.637507021  0.137616128  0.091281682 C  
atom_frac  0.637507021  0.137616128  0.591281712 C  
atom_frac  0.637507021  0.637616098  0.091281682 C  
atom_frac  0.637507021  0.637616098  0.591281712 C  
atom_frac  0.362828314  0.362767696  0.409131169 C  
atom_frac  0.362828314  0.362767696  0.909131169 C  
atom_frac  0.362828314  0.862767696  0.409131169 C  
atom_frac  0.362828314  0.862767696  0.909131169 C  
atom_frac  0.862828314  0.362767696  0.409131169 C  
atom_frac  0.862828314  0.362767696  0.909131169 C  
atom_frac  0.862828314  0.862767696  0.409131169 C  
atom_frac  0.862828314  0.862767696  0.909131169 C  
atom_frac  0.349533319  0.349353850  0.445581973 C  
atom_frac  0.349533319  0.349353850  0.945581973 C  
atom_frac  0.349533319  0.849353850  0.445581973 C  
atom_frac  0.349533319  0.849353850  0.945581973 C  
atom_frac  0.849533319  0.349353850  0.445581973 C  
atom_frac  0.849533319  0.349353850  0.945581973 C  
atom_frac  0.849533319  0.849353850  0.445581973 C  
atom_frac  0.849533319  0.849353850  0.945581973 C  
atom_frac  0.151348233  0.151530027  0.055365492 C  
atom_frac  0.151348233  0.151530027  0.555365503 C  
atom_frac  0.151348233  0.651530027  0.055365492 C  
atom_frac  0.151348233  0.651530027  0.555365503 C  
atom_frac  0.651348233  0.151530027  0.055365492 C  
atom_frac  0.651348233  0.151530027  0.555365503 C  
atom_frac  0.651348233  0.651530027  0.055365492 C  
atom_frac  0.651348233  0.651530027  0.555365503 C  
atom_frac  0.348378658  0.348569781  0.055482853 C  
atom_frac  0.348378658  0.348569781  0.555482864 C  
atom_frac  0.348378658  0.848569751  0.055482853 C  
atom_frac  0.348378658  0.848569751  0.555482864 C  
atom_frac  0.848378658  0.348569781  0.055482853 C  
atom_frac  0.848378658  0.348569781  0.555482864 C  
atom_frac  0.848378658  0.848569751  0.055482853 C  
atom_frac  0.848378658  0.848569751  0.555482864 C  
atom_frac  0.150702402  0.150512442  0.445459872 C  
atom_frac  0.150702402  0.150512442  0.945459902 C  
atom_frac  0.150702402  0.650512457  0.445459872 C  
atom_frac  0.150702402  0.650512457  0.945459902 C  
atom_frac  0.650702417  0.150512442  0.445459872 C  
atom_frac  0.650702417  0.150512442  0.945459902 C  
atom_frac  0.650702417  0.650512457  0.445459872 C  
atom_frac  0.650702417  0.650512457  0.945459902 C  
atom_frac  0.349633723  0.150417075  0.445786685 C  
atom_frac  0.349633723  0.150417075  0.945786715 C  
atom_frac  0.349633723  0.650417089  0.445786685 C  
atom_frac  0.349633723  0.650417089  0.945786715 C  
atom_frac  0.849633753  0.150417075  0.445786685 C  
atom_frac  0.849633753  0.150417075  0.945786715 C  
atom_frac  0.849633753  0.650417089  0.445786685 C  
atom_frac  0.849633753  0.650417089  0.945786715 C  
atom_frac  0.151333377  0.348590732  0.055308308 C  
atom_frac  0.151333377  0.348590732  0.555308282 C  
atom_frac  0.151333377  0.848590732  0.055308308 C  
atom_frac  0.151333377  0.848590732  0.555308282 C  
atom_frac  0.651333392  0.348590732  0.055308308 C  
atom_frac  0.651333392  0.348590732  0.555308282 C  
atom_frac  0.651333392  0.848590732  0.055308308 C  
atom_frac  0.651333392  0.848590732  0.555308282 C  
atom_frac  0.348347217  0.151575342  0.055655535 C  
atom_frac  0.348347217  0.151575342  0.555655539 C  
atom_frac  0.348347217  0.651575327  0.055655535 C  
atom_frac  0.348347217  0.651575327  0.555655539 C  
atom_frac  0.848347247  0.151575342  0.055655535 C  
atom_frac  0.848347247  0.151575342  0.555655539 C  
atom_frac  0.848347247  0.651575327  0.055655535 C  
atom_frac  0.848347247  0.651575327  0.555655539 C  
atom_frac  0.150625065  0.349431038  0.445426732 C  
atom_frac  0.150625065  0.349431038  0.945426762 C  
atom_frac  0.150625065  0.849431038  0.445426732 C  
atom_frac  0.150625065  0.849431038  0.945426762 C  
atom_frac  0.650625050  0.349431038  0.445426732 C  
atom_frac  0.650625050  0.349431038  0.945426762 C  
atom_frac  0.650625050  0.849431038  0.445426732 C  
atom_frac  0.650625050  0.849431038  0.945426762 C  
atom_frac  0.401553452  0.098471954  0.194477513 C  
atom_frac  0.401553452  0.098471954  0.694477499 C  
atom_frac  0.401553452  0.598471940  0.194477513 C  
atom_frac  0.401553452  0.598471940  0.694477499 C  
atom_frac  0.901553452  0.098471954  0.194477513 C  
atom_frac  0.901553452  0.098471954  0.694477499 C  
atom_frac  0.901553452  0.598471940  0.194477513 C  
atom_frac  0.901553452  0.598471940  0.694477499 C  
atom_frac  0.099253401  0.400642753  0.304744899 C  
atom_frac  0.099253401  0.400642753  0.804744899 C  
atom_frac  0.099253401  0.900642753  0.304744899 C  
atom_frac  0.099253401  0.900642753  0.804744899 C  
atom_frac  0.599253416  0.400642753  0.304744899 C  
atom_frac  0.599253416  0.400642753  0.804744899 C  
atom_frac  0.599253416  0.900642753  0.304744899 C  
atom_frac  0.599253416  0.900642753  0.804744899 C  
atom_frac  0.400399357  0.099497743  0.304375023 C  
atom_frac  0.400399357  0.099497743  0.804374993 C  
atom_frac  0.400399357  0.599497736  0.304375023 C  
atom_frac  0.400399357  0.599497736  0.804374993 C  
atom_frac  0.900399327  0.099497743  0.304375023 C  
atom_frac  0.900399327  0.099497743  0.804374993 C  
atom_frac  0.900399327  0.599497736  0.304375023 C  
atom_frac  0.900399327  0.599497736  0.804374993 C  
atom_frac  0.098580569  0.401437819  0.194843903 C  
atom_frac  0.098580569  0.401437819  0.694843888 C  
atom_frac  0.098580569  0.901437819  0.194843903 C  
atom_frac  0.098580569  0.901437819  0.694843888 C  
atom_frac  0.598580539  0.401437819  0.194843903 C  
atom_frac  0.598580539  0.401437819  0.694843888 C  
atom_frac  0.598580539  0.901437819  0.194843903 C  
atom_frac  0.598580539  0.901437819  0.694843888 C  
atom_frac  0.401571274  0.401461512  0.194538936 C  
atom_frac  0.401571274  0.401461512  0.694538951 C  
atom_frac  0.401571274  0.901461542  0.194538936 C  
atom_frac  0.401571274  0.901461542  0.694538951 C  
atom_frac  0.901571274  0.401461512  0.194538936 C  
atom_frac  0.901571274  0.401461512  0.694538951 C  
atom_frac  0.901571274  0.901461542  0.194538936 C  
atom_frac  0.901571274  0.901461542  0.694538951 C  
atom_frac  0.099308819  0.099595562  0.304543376 C  
atom_frac  0.099308819  0.099595562  0.804543376 C  
atom_frac  0.099308819  0.599595547  0.304543376 C  
atom_frac  0.099308819  0.599595547  0.804543376 C  
atom_frac  0.599308789  0.099595562  0.304543376 C  
atom_frac  0.599308789  0.099595562  0.804543376 C  
atom_frac  0.599308789  0.599595547  0.304543376 C  
atom_frac  0.599308789  0.599595547  0.804543376 C  
atom_frac  0.400309086  0.400591224  0.304423660 C  
atom_frac  0.400309086  0.400591224  0.804423630 C  
atom_frac  0.400309086  0.900591254  0.304423660 C  
atom_frac  0.400309086  0.900591254  0.804423630 C  
atom_frac  0.900309086  0.400591224  0.304423660 C  
atom_frac  0.900309086  0.400591224  0.804423630 C  
atom_frac  0.900309086  0.900591254  0.304423660 C  
atom_frac  0.900309086  0.900591254  0.804423630 C  
atom_frac  0.098563842  0.098462649  0.194656953 C  
atom_frac  0.098563842  0.098462649  0.694656968 C  
atom_frac  0.098563842  0.598462641  0.194656953 C  
atom_frac  0.098563842  0.598462641  0.694656968 C  
atom_frac  0.598563850  0.098462649  0.194656953 C  
atom_frac  0.598563850  0.098462649  0.694656968 C  
atom_frac  0.598563850  0.598462641  0.194656953 C  
atom_frac  0.598563850  0.598462641  0.694656968 C  
atom_frac  0.096354485  0.141611174  0.142202809 C  
atom_frac  0.096354485  0.141611174  0.642202795 C  
atom_frac  0.096354485  0.641611159  0.142202809 C  
atom_frac  0.096354485  0.641611159  0.642202795 C  
atom_frac  0.596354485  0.141611174  0.142202809 C  
atom_frac  0.596354485  0.141611174  0.642202795 C  
atom_frac  0.596354485  0.641611159  0.142202809 C  
atom_frac  0.596354485  0.641611159  0.642202795 C  
atom_frac  0.403389663  0.358277708  0.357699335 C  
atom_frac  0.403389663  0.358277708  0.857699335 C  
atom_frac  0.403389663  0.858277738  0.357699335 C  
atom_frac  0.403389663  0.858277738  0.857699335 C  
atom_frac  0.903389633  0.358277708  0.357699335 C  
atom_frac  0.903389633  0.358277708  0.857699335 C  
atom_frac  0.903389633  0.858277738  0.357699335 C  
atom_frac  0.903389633  0.858277738  0.857699335 C  
atom_frac  0.096152470  0.141483009  0.358315587 C  
atom_frac  0.096152470  0.141483009  0.858315587 C  
atom_frac  0.096152470  0.641483009  0.358315587 C  
atom_frac  0.096152470  0.641483009  0.858315587 C  
atom_frac  0.596152484  0.141483009  0.358315587 C  
atom_frac  0.596152484  0.141483009  0.858315587 C  
atom_frac  0.596152484  0.641483009  0.358315587 C  
atom_frac  0.596152484  0.641483009  0.858315587 C  
atom_frac  0.404214680  0.358964831  0.141405582 C  
atom_frac  0.404214680  0.358964831  0.641405582 C  
atom_frac  0.404214680  0.858964801  0.141405582 C  
atom_frac  0.404214680  0.858964801  0.641405582 C  
atom_frac  0.904214680  0.358964831  0.141405582 C  
atom_frac  0.904214680  0.358964831  0.641405582 C  
atom_frac  0.904214680  0.858964801  0.141405582 C  
atom_frac  0.904214680  0.858964801  0.641405582 C  
atom_frac  0.141200319  0.404034168  0.141774729 C  
atom_frac  0.141200319  0.404034168  0.641774714 C  
atom_frac  0.141200319  0.904034138  0.141774729 C  
atom_frac  0.141200319  0.904034138  0.641774714 C  
atom_frac  0.641200304  0.404034168  0.141774729 C  
atom_frac  0.641200304  0.404034168  0.641774714 C  
atom_frac  0.641200304  0.904034138  0.141774729 C  
atom_frac  0.641200304  0.904034138  0.641774714 C  